CSi
1.0
2.6869744850745265 -3.845503e-10 1.5513250526772773
0.8956581613289514 2.533303526984513 1.5513250526772773
-1.087673e-09 -7.691009e-10 3.1026511091223643
Si C
1 1
Cartesian
0.8956575 0.633325 1.5513275000000002
0.0 0.0 0.0


