System
1.0
8.06092 -0.0 4.65398
2.68697 7.59991 4.65398
-0.0 -0.0 9.30795
Si C
27 27
direct
0.08333336988342843 0.08333322368291203 0.0833335489419392 Si
0.08333336988342843 0.08333322368291203 0.4166668822752725 Si
0.08333336988342843 0.08333322368291203 0.7500002156086057 Si
0.08333336988342842 0.4166665570162454 0.08333354894193916 Si
0.08333336988342842 0.4166665570162454 0.41666688227527243 Si
0.08333336988342842 0.4166665570162454 0.7500002156086059 Si
0.08333336988342846 0.7499998903495787 0.08333354894193917 Si
0.08333336988342846 0.7499998903495787 0.4166668822752725 Si
0.08333336988342846 0.7499998903495787 0.7500002156086057 Si
0.4166667032167617 0.08333322368291203 0.08333354894193916 Si
0.4166667032167617 0.08333322368291203 0.41666688227527243 Si
0.4166667032167617 0.08333322368291203 0.7500002156086059 Si
0.4166667032167617 0.4166665570162454 0.08333354894193923 Si
0.4166667032167617 0.4166665570162454 0.41666688227527254 Si
0.4166667032167617 0.4166665570162454 0.7500002156086059 Si
0.41666670321676175 0.7499998903495787 0.08333354894193921 Si
0.41666670321676175 0.7499998903495787 0.4166668822752726 Si
0.41666670321676175 0.7499998903495787 0.750000215608606 Si
0.750000036550095 0.08333322368291203 0.08333354894193928 Si
0.750000036550095 0.08333322368291203 0.4166668822752726 Si
0.750000036550095 0.08333322368291203 0.7500002156086059 Si
0.7500000365500951 0.4166665570162454 0.08333354894193921 Si
0.7500000365500951 0.4166665570162454 0.4166668822752726 Si
0.7500000365500951 0.4166665570162454 0.750000215608606 Si
0.750000036550095 0.7499998903495787 0.08333354894193924 Si
0.750000036550095 0.7499998903495787 0.41666688227527243 Si
0.750000036550095 0.7499998903495787 0.7500002156086059 Si
0.0 0.0 0.0 C
0.0 0.0 0.3333333333333333 C
0.0 0.0 0.6666666666666666 C
2.482774395070543e-18 0.3333333333333333 -2.5391938025120546e-17 C
2.482774395070543e-18 0.3333333333333333 0.33333333333333326 C
2.482774395070543e-18 0.3333333333333333 0.6666666666666666 C
4.965548790141086e-18 0.6666666666666666 -5.078387605024109e-17 C
4.965548790141086e-18 0.6666666666666666 0.33333333333333326 C
4.965548790141086e-18 0.6666666666666666 0.6666666666666665 C
0.3333333333333333 0.0 2.363637590508367e-18 C
0.3333333333333333 0.0 0.33333333333333326 C
0.3333333333333333 0.0 0.6666666666666666 C
0.3333333333333333 0.3333333333333333 4.727275181016734e-18 C
0.3333333333333333 0.3333333333333333 0.3333333333333333 C
0.3333333333333333 0.3333333333333333 0.6666666666666665 C
0.3333333333333333 0.6666666666666666 -2.4564866984270212e-17 C
0.3333333333333333 0.6666666666666666 0.33333333333333326 C
0.3333333333333333 0.6666666666666666 0.6666666666666666 C
0.6666666666666666 0.0 4.727275181016734e-18 C
0.6666666666666666 0.0 0.3333333333333333 C
0.6666666666666666 0.0 0.6666666666666665 C
0.6666666666666666 0.3333333333333333 8.645743547824544e-17 C
0.6666666666666666 0.3333333333333333 0.33333333333333337 C
0.6666666666666666 0.3333333333333333 0.6666666666666667 C
0.6666666666666666 0.6666666666666666 9.454550362033469e-18 C
0.6666666666666666 0.6666666666666666 0.3333333333333333 C
0.6666666666666666 0.6666666666666666 0.6666666666666666 C
