ystem
1.0
-5.4214 0.0 0.0
0.0 -5.02125 0.0
0.0 0.0 20.74766833333333
Al Ga N 
12 10 22 
direct
1.0833323268736494 -0.1906688045060515 0.5222635076175256 bottom
-1.0833323268736492 0.3093314621449205 0.8994195127657343 bottom
-0.5833326342973162 0.3093314621449205 0.8239883117360925 bottom
0.41666675085535043 0.3093314621449205 0.6731259096768091 bottom
0.9166664434316837 0.3093314621449205 0.5976947086471676 bottom
1.416666136008017 0.3093314621449205 0.5222635076175256 bottom
-0.08333294172098284 0.3093314621449205 0.7485571107064509 bottom
-0.9166664434316838 -0.1906688045060515 0.8239883117360925 bottom
-0.4166667508553505 -0.1906688045060515 0.7485571107064509 bottom
0.08333294172098281 -0.1906688045060515 0.6731259096768091 bottom
0.5833326342973162 -0.1906688045060515 0.5976947086471676 bottom
-1.4166661360080168 -0.1906688045060515 0.8994195127657343 bottom
-0.6666674207174296 -0.31191408991440145 0.3243791186716828 top
-0.33333329843540827 0.18808592275599575 0.3243791186716828 top
0.16666706114101054 0.18808592275599575 0.2469901877700441 top
0.6666674207174296 0.18808592275599575 0.1696012568684056 top
1.1666677802938488 0.18808592275599575 0.09221232596676698 top
0.33333329843540827 -0.31191408991440145 0.1696012568684056 top
-0.16666706114101087 -0.31191408991440145 0.2469901877700441 top
-1.1666677802938488 -0.31191408991440145 0.40176804957332135 top
0.8333336580118271 -0.31191408991440145 0.09221232596676698 top
-0.8333336580118273 0.18808592275599575 0.40176804957332135 top
0.6666674207174296 -0.18808592275599575 0.1696012568684056 top
0.16666706114101076 -0.18808592275599575 0.2469901877700441 top
-0.33333329843540827 -0.18808592275599575 0.3243791186716828 top
-0.8333336580118273 -0.18808592275599575 0.40176804957332135 top
0.33333329843540827 0.31191408991440145 0.1696012568684056 top
-0.16666706114101046 0.31191408991440145 0.2469901877700441 top
1.1666677802938488 -0.18808592275599575 0.09221232596676698 top
0.8333336580118275 0.31191408991440145 0.09221232596676698 top
-0.08333294172098284 -0.30933146214492024 0.7485571107064509 bottom
-0.5833326342973162 -0.30933146214492024 0.8239883117360925 bottom
-0.6666674207174296 0.31191408991440145 0.3243791186716828 top
0.41666675085535043 -0.30933146214492024 0.6731259096768091 bottom
0.9166664434316837 -0.30933146214492024 0.5976947086471676 bottom
1.416666136008017 -0.30933146214492024 0.5222635076175256 bottom
-1.4166661360080168 0.1906688045060513 0.8994195127657343 bottom
-0.9166664434316838 0.1906688045060513 0.8239883117360925 bottom
-0.4166667508553505 0.1906688045060513 0.7485571107064509 bottom
0.08333294172098281 0.1906688045060513 0.6731259096768091 bottom
0.583332634297316 0.1906688045060513 0.5976947086471676 bottom
1.0833323268736494 0.1906688045060513 0.5222635076175256 bottom
-1.0833323268736492 -0.30933146214492024 0.8994195127657343 bottom
-1.1666677802938488 0.31191408991440145 0.40176804957332135 top

