System
1.0
-0.0 5.73163 -0.0
8.10575 -0.0 -0.0
-0.0 -0.0 -26.343643666455268
As Ga Si 
12 12 24 
direct
0.125 -0.7499998964165412 0.8511499074085057 bottom
0.125 -0.24999996547218029 0.6973034974115482 bottom
0.125 0.24999996547218034 0.5434570874145908 bottom
-0.375 -0.4999999309443608 0.9280731124069845 bottom
-0.375 2.5442610980993176e-17 0.774226702410027 bottom
-0.375 0.4999999309443608 0.6203802924130694 bottom
-0.375 -0.9999998618887216 0.9280731124069845 bottom
-0.375 -0.4999999309443608 0.774226702410027 bottom
-0.375 2.5442610980993176e-17 0.6203802924130694 bottom
0.125 -0.2499999654721805 0.8511499074085057 bottom
0.125 0.24999996547218034 0.6973034974115482 bottom
0.125 0.7499998964165413 0.5434570874145905 bottom
0.375 0.9999998618887216 0.5434570874145905 bottom
0.375 2.5442610980993176e-17 0.6973034974115482 bottom
0.375 0.4999999309443608 0.5434570874145908 bottom
-0.125 -0.24999996547218029 0.9280731124069845 bottom
-0.125 0.24999996547218034 0.774226702410027 bottom
-0.125 0.7499998964165413 0.6203802924130694 bottom
-0.125 -0.7499998964165414 0.9280731124069845 bottom
-0.125 -0.2499999654721805 0.774226702410027 bottom
-0.125 0.24999996547218034 0.6203802924130694 bottom
0.375 2.5442610980993176e-17 0.8511499074085057 bottom
0.375 0.4999999309443608 0.6973034974115482 bottom
0.375 -0.4999999309443608 0.8511499074085057 bottom
0.125 -2.104797817518526e-16 0.3010994243760031 top
0.125 -0.4999997459612616 0.44855752152316475 top
0.375 0.7499996189418926 0.1536413272288415 top
0.375 0.2499998729806307 0.3010994243760031 top
-0.125 0.4999997459612615 0.07991227865526063 top
-0.375 0.2499998729806307 0.07991227865526063 top
-0.375 -0.24999987298063076 0.2273703758024223 top
-0.375 -0.7499996189418927 0.37482847294958405 top
0.125 0.4999997459612615 0.1536413272288415 top
0.375 -0.24999987298063076 0.44855752152316475 top
0.375 -0.7499996189418927 0.44855752152316475 top
0.125 1.1564823173178722e-17 0.1536413272288415 top
0.375 0.2499998729806307 0.1536413272288415 top
0.125 -0.9999994919225226 0.44855752152316475 top
0.125 -0.4999997459612613 0.301099424376003 top
-0.125 1.1564823173178722e-17 0.3748284729495839 top
-0.125 0.4999997459612615 0.2273703758024223 top
-0.125 0.999999491922523 0.07991227865526063 top
-0.375 -0.24999987298063053 0.3748284729495839 top
-0.375 0.2499998729806307 0.2273703758024223 top
-0.375 0.7499996189418926 0.07991227865526063 top
-0.125 1.1564823173178722e-17 0.2273703758024223 top
0.375 -0.24999987298063076 0.3010994243760031 top
-0.125 -0.4999997459612616 0.3748284729495839 top
