System
1.0
10.98726 0.0 0.0
0.0 10.98726 0.0
0.0 0.0 10.98726
Si 
64 
direct
-0.25774516502570954 -0.3023747013960403 0.14347264002092402 Si
0.5060752667720007 0.40602918866017224 0.24630657905083175 Si
0.2342218850571393 1.1457617073876707 -0.13389319432923336 Si
0.5530867050495858 0.7841711672884336 0.8462405518735859 Si
0.2860708367331478 0.9075657701474527 0.41028225926787487 Si
0.9404190765867295 -0.1867404767683179 0.36542884114692736 Si
0.5472798561647978 1.0562160824539124 0.06235916363850046 Si
1.0120093953428861 1.1453682005559092 0.4046874488907358 Si
-0.20608973917422155 0.052014728650123215 -0.15094782312098834 Si
0.45242438882154107 -0.3082458281617627 1.4727731925696652 Si
-0.06915937605751875 0.5101666980844001 0.47544432145526605 Si
-0.40831835400421396 0.5520581647152777 1.1104954922039738 Si
-0.10753770852508522 0.17465945446047812 0.003961677731997706 Si
0.4898704851796051 0.2648984509459038 1.0699503838876407 Si
0.8075169419397847 0.16588657076519073 0.673922581546174 Si
0.6831796396105273 0.3616047464359007 1.0143990083538454 Si
-0.4717958146448579 0.5651900038813501 0.7839198819448012 Si
0.11323131749669989 0.3239308438086181 0.13472586446380772 Si
0.06356236693425356 0.26769214352422 -0.07443051465084077 Si
0.2605810880848704 0.601297801219924 0.5169566099145099 Si
1.0826550088258196 -0.058775344434114495 0.44359548908668733 Si
0.6662162658107903 0.3994350457989197 0.8095729947354869 Si
0.19948959054433985 0.7475601231879555 0.6639506902701566 Si
0.8485755613906583 -0.1137946909568367 1.1783545212754858 Si
-0.0747440228880065 -0.10760622014150191 -0.20721586995714025 Si
-0.23378457068743444 0.8616845552827993 0.4745834485326224 Si
-0.08167423829578882 0.5670823458903325 -0.8706934894159076 Si
-0.6123756527976544 1.017873514947972 0.5852078523649751 Si
0.8099601201082292 -0.2274749285183221 0.6692870048632841 Si
1.1291119594900034 0.2492751223257866 0.5571155828908291 Si
0.6973772478441126 1.035368874842858 0.21489163119759377 Si
0.5484914316444458 1.236122780371654 0.727853041414752 Si
0.5505219684474915 0.529909504236969 0.5684844388866785 Si
0.37144257543541553 0.8500240958910972 0.7562502352619525 Si
0.09177590180960242 0.8781445087343777 -0.05499524356602487 Si
0.6548251171731023 1.1627544795762228 0.3877480946658203 Si
0.6581006485527795 -0.28739498311893724 0.35562366183264255 Si
0.2839813652160944 -0.5470449415738193 1.1836290207822748 Si
1.3188370482483625 1.0783385690772465 0.27543171967927893 Si
0.8161668203906626 1.0735556995900892 0.4915594269208594 Si
-0.13225855061003577 0.4685958309841677 -0.20475067535059457 Si
0.21599523128436965 -0.38594166446892614 0.3057307255212012 Si
0.00932555227749731 0.006146024774626235 0.09182765858192816 Si
0.08528708421644259 0.9184377324483137 0.6467325673265844 Si
0.3296161206342295 0.4869791156046875 -0.17461894823421756 Si
0.9284952014768031 -0.39926435419430745 0.6655096733672503 Si
0.3889013519376098 0.9243317791480686 0.12128737249497952 Si
1.1032898537118723 0.6113363385375168 0.799320398753502 Si
0.39553026306364697 0.28403377144307035 -0.12000054987405692 Si
0.44243522570652694 0.17174858386970204 0.42640176975955213 Si
0.709006061223894 0.3597302492572195 0.31807216330534865 Si
0.4812443995949793 0.7279132748383269 1.046645520218404 Si
1.0085138876463025 -0.37802560299833915 0.3091612281866279 Si
1.2523860606137167 0.4131971687192387 0.614329914487738 Si
0.7198125422525162 0.5127380630581257 0.44772757482693853 Si
1.2075109662412151 1.087946970272284 0.6662943606713551 Si
0.28520378354628095 -0.04621103203276953 -0.06498607353471948 Si
0.4591958364653373 0.33775152238489814 0.5563846381767452 Si
0.12962313794388008 0.13072416739745743 0.22279784302077568 Si
0.3060669448216323 0.5949659643018298 1.0077848833204885 Si
-0.13366179205738785 0.3638330702063447 0.15574036080011455 Si
1.0960626302618623 -0.32222118995130067 1.0007449817746512 Si
0.5897222907741512 1.0003073050987965 -0.14878906790293234 Si
0.9688626783676626 1.2987580836313921 0.7243624627200501 Si
